p cnf 819 2530
-3 4 51 0
3 4 -51 0
-3 -4 -51 0
3 -4 51 0
-5 6 52 0
5 6 -52 0
-5 -6 -52 0
5 -6 52 0
8 -9 53 0
-8 -9 -53 0
8 9 -53 0
-8 9 53 0
10 11 54 0
-10 11 -54 0
10 -11 -54 0
-10 -11 54 0
12 16 55 0
-12 16 -55 0
12 -16 -55 0
-12 -16 55 0
-19 20 56 0
19 20 -56 0
-19 -20 -56 0
19 -20 56 0
-23 24 57 0
23 24 -57 0
-23 -24 -57 0
23 -24 57 0
-25 26 58 0
25 26 -58 0
-25 -26 -58 0
25 -26 58 0
28 -29 59 0
-28 -29 -59 0
28 29 -59 0
-28 29 59 0
-30 32 60 0
30 32 -60 0
-30 -32 -60 0
30 -32 60 0
-36 38 61 0
36 38 -61 0
-36 -38 -61 0
36 -38 61 0
-40 -41 62 0
40 -41 -62 0
-40 41 -62 0
40 41 62 0
-45 47 63 0
45 47 -63 0
-45 -47 -63 0
45 -47 63 0
-49 -50 64 0
49 -50 -64 0
-49 50 -64 0
49 50 64 0
51 -52 65 0
-51 -52 -65 0
51 52 -65 0
-51 52 65 0
53 -54 66 0
-53 -54 -66 0
53 54 -66 0
-53 54 66 0
55 -56 67 0
-55 -56 -67 0
55 56 -67 0
-55 56 67 0
57 -58 68 0
-57 -58 -68 0
57 58 -68 0
-57 58 68 0
59 -60 69 0
-59 -60 -69 0
59 60 -69 0
-59 60 69 0
61 -62 70 0
-61 -62 -70 0
61 62 -70 0
-61 62 70 0
63 -64 71 0
-63 -64 -71 0
63 64 -71 0
-63 64 71 0
65 -66 72 0
-65 -66 -72 0
65 66 -72 0
-65 66 72 0
67 -68 73 0
-67 -68 -73 0
67 68 -73 0
-67 68 73 0
69 -70 74 0
-69 -70 -74 0
69 70 -74 0
-69 70 74 0
71 -72 75 0
-71 -72 -75 0
71 72 -75 0
-71 72 75 0
73 -74 76 0
-73 -74 -76 0
73 74 -76 0
-73 74 76 0
75 76 0
-75 -76 0
1 3 77 0
-1 3 -77 0
1 -3 -77 0
-1 -3 77 0
-6 7 78 0
6 7 -78 0
-6 -7 -78 0
6 -7 78 0
-12 14 79 0
12 14 -79 0
-12 -14 -79 0
12 -14 79 0
17 19 80 0
-17 19 -80 0
17 -19 -80 0
-17 -19 80 0
-24 -25 81 0
24 -25 -81 0
-24 25 -81 0
24 25 81 0
-27 28 82 0
27 28 -82 0
-27 -28 -82 0
27 -28 82 0
30 -31 83 0
-30 -31 -83 0
30 31 -83 0
-30 31 83 0
32 36 84 0
-32 36 -84 0
32 -36 -84 0
-32 -36 84 0
40 -44 85 0
-40 -44 -85 0
40 44 -85 0
-40 44 85 0
45 -46 86 0
-45 -46 -86 0
45 46 -86 0
-45 46 86 0
76 -77 87 0
-76 -77 -87 0
76 77 -87 0
-76 77 87 0
78 -79 88 0
-78 -79 -88 0
78 79 -88 0
-78 79 88 0
80 -81 89 0
-80 -81 -89 0
80 81 -89 0
-80 81 89 0
82 -83 90 0
-82 -83 -90 0
82 83 -90 0
-82 83 90 0
84 -85 91 0
-84 -85 -91 0
84 85 -91 0
-84 85 91 0
86 -87 92 0
-86 -87 -92 0
86 87 -92 0
-86 87 92 0
88 -89 93 0
-88 -89 -93 0
88 89 -93 0
-88 89 93 0
90 -91 94 0
-90 -91 -94 0
90 91 -94 0
-90 91 94 0
-92 -93 94 0
92 -93 -94 0
-92 93 -94 0
92 93 94 0
2 -3 95 0
-2 -3 -95 0
2 3 -95 0
-2 3 95 0
-5 6 96 0
5 6 -96 0
-5 -6 -96 0
5 -6 96 0
-7 -10 97 0
7 -10 -97 0
-7 10 -97 0
7 10 97 0
-12 17 98 0
12 17 -98 0
-12 -17 -98 0
12 -17 98 0
-21 23 99 0
21 23 -99 0
-21 -23 -99 0
21 -23 99 0
25 26 100 0
-25 26 -100 0
25 -26 -100 0
-25 -26 100 0
28 -29 101 0
-28 -29 -101 0
28 29 -101 0
-28 29 101 0
-30 -31 102 0
30 -31 -102 0
-30 31 -102 0
30 31 102 0
32 -33 103 0
-32 -33 -103 0
32 33 -103 0
-32 33 103 0
-34 36 104 0
34 36 -104 0
-34 -36 -104 0
34 -36 104 0
41 -50 105 0
-41 -50 -105 0
41 50 -105 0
-41 50 105 0
95 -96 106 0
-95 -96 -106 0
95 96 -106 0
-95 96 106 0
97 -98 107 0
-97 -98 -107 0
97 98 -107 0
-97 98 107 0
99 -100 108 0
-99 -100 -108 0
99 100 -108 0
-99 100 108 0
101 -102 109 0
-101 -102 -109 0
101 102 -109 0
-101 102 109 0
103 -104 110 0
-103 -104 -110 0
103 104 -110 0
-103 104 110 0
105 -106 111 0
-105 -106 -111 0
105 106 -111 0
-105 106 111 0
107 -108 112 0
-107 -108 -112 0
107 108 -112 0
-107 108 112 0
109 -110 113 0
-109 -110 -113 0
109 110 -113 0
-109 110 113 0
-111 -112 113 0
111 -112 -113 0
-111 112 -113 0
111 112 113 0
-4 5 114 0
4 5 -114 0
-4 -5 -114 0
4 -5 114 0
6 -8 115 0
-6 -8 -115 0
6 8 -115 0
-6 8 115 0
-14 16 116 0
14 16 -116 0
-14 -16 -116 0
14 -16 116 0
-21 -22 117 0
21 -22 -117 0
-21 22 -117 0
21 22 117 0
-23 25 118 0
23 25 -118 0
-23 -25 -118 0
23 -25 118 0
29 -31 119 0
-29 -31 -119 0
29 31 -119 0
-29 31 119 0
33 -34 120 0
-33 -34 -120 0
33 34 -120 0
-33 34 120 0
35 36 121 0
-35 36 -121 0
35 -36 -121 0
-35 -36 121 0
-38 39 122 0
38 39 -122 0
-38 -39 -122 0
38 -39 122 0
-40 -44 123 0
40 -44 -123 0
-40 44 -123 0
40 44 123 0
-45 -47 124 0
45 -47 -124 0
-45 47 -124 0
45 47 124 0
48 50 125 0
-48 50 -125 0
48 -50 -125 0
-48 -50 125 0
114 -115 126 0
-114 -115 -126 0
114 115 -126 0
-114 115 126 0
116 -117 127 0
-116 -117 -127 0
116 117 -127 0
-116 117 127 0
118 -119 128 0
-118 -119 -128 0
118 119 -128 0
-118 119 128 0
120 -121 129 0
-120 -121 -129 0
120 121 -129 0
-120 121 129 0
122 -123 130 0
-122 -123 -130 0
122 123 -130 0
-122 123 130 0
124 -125 131 0
-124 -125 -131 0
124 125 -131 0
-124 125 131 0
126 -127 132 0
-126 -127 -132 0
126 127 -132 0
-126 127 132 0
128 -129 133 0
-128 -129 -133 0
128 129 -133 0
-128 129 133 0
130 -131 134 0
-130 -131 -134 0
130 131 -134 0
-130 131 134 0
-132 -133 134 0
132 -133 -134 0
-132 133 -134 0
132 133 134 0
-3 -4 135 0
3 -4 -135 0
-3 4 -135 0
3 4 135 0
-7 -8 136 0
7 -8 -136 0
-7 8 -136 0
7 8 136 0
-10 -13 137 0
10 -13 -137 0
-10 13 -137 0
10 13 137 0
-15 -18 138 0
15 -18 -138 0
-15 18 -138 0
15 18 138 0
-20 22 139 0
20 22 -139 0
-20 -22 -139 0
20 -22 139 0
-23 -25 140 0
23 -25 -140 0
-23 25 -140 0
23 25 140 0
30 -31 141 0
-30 -31 -141 0
30 31 -141 0
-30 31 141 0
-32 -33 142 0
32 -33 -142 0
-32 33 -142 0
32 33 142 0
-34 -37 143 0
34 -37 -143 0
-34 37 -143 0
34 37 143 0
-39 42 144 0
39 42 -144 0
-39 -42 -144 0
39 -42 144 0
43 -45 145 0
-43 -45 -145 0
43 45 -145 0
-43 45 145 0
-46 -47 146 0
46 -47 -146 0
-46 47 -146 0
46 47 146 0
49 50 147 0
-49 50 -147 0
49 -50 -147 0
-49 -50 147 0
135 -136 148 0
-135 -136 -148 0
135 136 -148 0
-135 136 148 0
137 -138 149 0
-137 -138 -149 0
137 138 -149 0
-137 138 149 0
139 -140 150 0
-139 -140 -150 0
139 140 -150 0
-139 140 150 0
141 -142 151 0
-141 -142 -151 0
141 142 -151 0
-141 142 151 0
143 -144 152 0
-143 -144 -152 0
143 144 -152 0
-143 144 152 0
145 -146 153 0
-145 -146 -153 0
145 146 -153 0
-145 146 153 0
147 -148 154 0
-147 -148 -154 0
147 148 -154 0
-147 148 154 0
149 -150 155 0
-149 -150 -155 0
149 150 -155 0
-149 150 155 0
151 -152 156 0
-151 -152 -156 0
151 152 -156 0
-151 152 156 0
153 -154 157 0
-153 -154 -157 0
153 154 -157 0
-153 154 157 0
155 -156 158 0
-155 -156 -158 0
155 156 -158 0
-155 156 158 0
157 158 0
-157 -158 0
1 4 159 0
-1 4 -159 0
1 -4 -159 0
-1 -4 159 0
5 -7 160 0
-5 -7 -160 0
5 7 -160 0
-5 7 160 0
-9 12 161 0
9 12 -161 0
-9 -12 -161 0
9 -12 161 0
13 15 162 0
-13 15 -162 0
13 -15 -162 0
-13 -15 162 0
16 -17 163 0
-16 -17 -163 0
16 17 -163 0
-16 17 163 0
-18 23 164 0
18 23 -164 0
-18 -23 -164 0
18 -23 164 0
-24 -30 165 0
24 -30 -165 0
-24 30 -165 0
24 30 165 0
32 -34 166 0
-32 -34 -166 0
32 34 -166 0
-32 34 166 0
35 36 167 0
-35 36 -167 0
35 -36 -167 0
-35 -36 167 0
-37 40 168 0
37 40 -168 0
-37 -40 -168 0
37 -40 168 0
-43 45 169 0
43 45 -169 0
-43 -45 -169 0
43 -45 169 0
46 -49 170 0
-46 -49 -170 0
46 49 -170 0
-46 49 170 0
158 -159 171 0
-158 -159 -171 0
158 159 -171 0
-158 159 171 0
160 -161 172 0
-160 -161 -172 0
160 161 -172 0
-160 161 172 0
162 -163 173 0
-162 -163 -173 0
162 163 -173 0
-162 163 173 0
164 -165 174 0
-164 -165 -174 0
164 165 -174 0
-164 165 174 0
166 -167 175 0
-166 -167 -175 0
166 167 -175 0
-166 167 175 0
168 -169 176 0
-168 -169 -176 0
168 169 -176 0
-168 169 176 0
170 -171 177 0
-170 -171 -177 0
170 171 -177 0
-170 171 177 0
172 -173 178 0
-172 -173 -178 0
172 173 -178 0
-172 173 178 0
174 -175 179 0
-174 -175 -179 0
174 175 -179 0
-174 175 179 0
176 -177 180 0
-176 -177 -180 0
176 177 -180 0
-176 177 180 0
178 -179 181 0
-178 -179 -181 0
178 179 -181 0
-178 179 181 0
180 181 0
-180 -181 0
-1 -4 182 0
1 -4 -182 0
-1 4 -182 0
1 4 182 0
8 11 183 0
-8 11 -183 0
8 -11 -183 0
-8 -11 183 0
13 14 184 0
-13 14 -184 0
13 -14 -184 0
-13 -14 184 0
15 16 185 0
-15 16 -185 0
15 -16 -185 0
-15 -16 185 0
-19 22 186 0
19 22 -186 0
-19 -22 -186 0
19 -22 186 0
23 -26 187 0
-23 -26 -187 0
23 26 -187 0
-23 26 187 0
-27 -28 188 0
27 -28 -188 0
-27 28 -188 0
27 28 188 0
-29 -30 189 0
29 -30 -189 0
-29 30 -189 0
29 30 189 0
33 38 190 0
-33 38 -190 0
33 -38 -190 0
-33 -38 190 0
39 -48 191 0
-39 -48 -191 0
39 48 -191 0
-39 48 191 0
182 -183 192 0
-182 -183 -192 0
182 183 -192 0
-182 183 192 0
184 -185 193 0
-184 -185 -193 0
184 185 -193 0
-184 185 193 0
186 -187 194 0
-186 -187 -194 0
186 187 -194 0
-186 187 194 0
188 -189 195 0
-188 -189 -195 0
188 189 -195 0
-188 189 195 0
190 -191 196 0
-190 -191 -196 0
190 191 -196 0
-190 191 196 0
192 -193 197 0
-192 -193 -197 0
192 193 -197 0
-192 193 197 0
194 -195 198 0
-194 -195 -198 0
194 195 -198 0
-194 195 198 0
-196 -197 198 0
196 -197 -198 0
-196 197 -198 0
196 197 198 0
-1 3 199 0
1 3 -199 0
-1 -3 -199 0
1 -3 199 0
-4 6 200 0
4 6 -200 0
-4 -6 -200 0
4 -6 200 0
-9 -10 201 0
9 -10 -201 0
-9 10 -201 0
9 10 201 0
11 -12 202 0
-11 -12 -202 0
11 12 -202 0
-11 12 202 0
-13 -16 203 0
13 -16 -203 0
-13 16 -203 0
13 16 203 0
-19 -20 204 0
19 -20 -204 0
-19 20 -204 0
19 20 204 0
23 25 205 0
-23 25 -205 0
23 -25 -205 0
-23 -25 205 0
-28 -33 206 0
28 -33 -206 0
-28 33 -206 0
28 33 206 0
-36 37 207 0
36 37 -207 0
-36 -37 -207 0
36 -37 207 0
41 43 208 0
-41 43 -208 0
41 -43 -208 0
-41 -43 208 0
44 -45 209 0
-44 -45 -209 0
44 45 -209 0
-44 45 209 0
46 47 210 0
-46 47 -210 0
46 -47 -210 0
-46 -47 210 0
199 -200 211 0
-199 -200 -211 0
199 200 -211 0
-199 200 211 0
201 -202 212 0
-201 -202 -212 0
201 202 -212 0
-201 202 212 0
203 -204 213 0
-203 -204 -213 0
203 204 -213 0
-203 204 213 0
205 -206 214 0
-205 -206 -214 0
205 206 -214 0
-205 206 214 0
207 -208 215 0
-207 -208 -215 0
207 208 -215 0
-207 208 215 0
209 -210 216 0
-209 -210 -216 0
209 210 -216 0
-209 210 216 0
211 -212 217 0
-211 -212 -217 0
211 212 -217 0
-211 212 217 0
213 -214 218 0
-213 -214 -218 0
213 214 -218 0
-213 214 218 0
215 -216 219 0
-215 -216 -219 0
215 216 -219 0
-215 216 219 0
-217 -218 219 0
217 -218 -219 0
-217 218 -219 0
217 218 219 0
-1 5 220 0
1 5 -220 0
-1 -5 -220 0
1 -5 220 0
-6 11 221 0
6 11 -221 0
-6 -11 -221 0
6 -11 221 0
12 -13 222 0
-12 -13 -222 0
12 13 -222 0
-12 13 222 0
-15 -16 223 0
15 -16 -223 0
-15 16 -223 0
15 16 223 0
17 20 224 0
-17 20 -224 0
17 -20 -224 0
-17 -20 224 0
-22 24 225 0
22 24 -225 0
-22 -24 -225 0
22 -24 225 0
25 27 226 0
-25 27 -226 0
25 -27 -226 0
-25 -27 226 0
28 -29 227 0
-28 -29 -227 0
28 29 -227 0
-28 29 227 0
-30 -33 228 0
30 -33 -228 0
-30 33 -228 0
30 33 228 0
-34 35 229 0
34 35 -229 0
-34 -35 -229 0
34 -35 229 0
36 40 230 0
-36 40 -230 0
36 -40 -230 0
-36 -40 230 0
-42 -44 231 0
42 -44 -231 0
-42 44 -231 0
42 44 231 0
-45 47 232 0
45 47 -232 0
-45 -47 -232 0
45 -47 232 0
219 -220 233 0
-219 -220 -233 0
219 220 -233 0
-219 220 233 0
221 -222 234 0
-221 -222 -234 0
221 222 -234 0
-221 222 234 0
223 -224 235 0
-223 -224 -235 0
223 224 -235 0
-223 224 235 0
225 -226 236 0
-225 -226 -236 0
225 226 -236 0
-225 226 236 0
227 -228 237 0
-227 -228 -237 0
227 228 -237 0
-227 228 237 0
229 -230 238 0
-229 -230 -238 0
229 230 -238 0
-229 230 238 0
231 -232 239 0
-231 -232 -239 0
231 232 -239 0
-231 232 239 0
233 -234 240 0
-233 -234 -240 0
233 234 -240 0
-233 234 240 0
235 -236 241 0
-235 -236 -241 0
235 236 -241 0
-235 236 241 0
237 -238 242 0
-237 -238 -242 0
237 238 -242 0
-237 238 242 0
239 -240 243 0
-239 -240 -243 0
239 240 -243 0
-239 240 243 0
241 -242 244 0
-241 -242 -244 0
241 242 -244 0
-241 242 244 0
243 244 0
-243 -244 0
-2 -5 245 0
2 -5 -245 0
-2 5 -245 0
2 5 245 0
6 10 246 0
-6 10 -246 0
6 -10 -246 0
-6 -10 246 0
-12 16 247 0
12 16 -247 0
-12 -16 -247 0
12 -16 247 0
20 -22 248 0
-20 -22 -248 0
20 22 -248 0
-20 22 248 0
25 -26 249 0
-25 -26 -249 0
25 26 -249 0
-25 26 249 0
-27 29 250 0
27 29 -250 0
-27 -29 -250 0
27 -29 250 0
30 31 251 0
-30 31 -251 0
30 -31 -251 0
-30 -31 251 0
32 34 252 0
-32 34 -252 0
32 -34 -252 0
-32 -34 252 0
-35 39 253 0
35 39 -253 0
-35 -39 -253 0
35 -39 253 0
41 43 254 0
-41 43 -254 0
41 -43 -254 0
-41 -43 254 0
46 -49 255 0
-46 -49 -255 0
46 49 -255 0
-46 49 255 0
245 -246 256 0
-245 -246 -256 0
245 246 -256 0
-245 246 256 0
247 -248 257 0
-247 -248 -257 0
247 248 -257 0
-247 248 257 0
249 -250 258 0
-249 -250 -258 0
249 250 -258 0
-249 250 258 0
251 -252 259 0
-251 -252 -259 0
251 252 -259 0
-251 252 259 0
253 -254 260 0
-253 -254 -260 0
253 254 -260 0
-253 254 260 0
255 -256 261 0
-255 -256 -261 0
255 256 -261 0
-255 256 261 0
257 -258 262 0
-257 -258 -262 0
257 258 -262 0
-257 258 262 0
259 -260 263 0
-259 -260 -263 0
259 260 -263 0
-259 260 263 0
-261 -262 263 0
261 -262 -263 0
-261 262 -263 0
261 262 263 0
1 2 264 0
-1 2 -264 0
1 -2 -264 0
-1 -2 264 0
6 -8 265 0
-6 -8 -265 0
6 8 -265 0
-6 8 265 0
10 13 266 0
-10 13 -266 0
10 -13 -266 0
-10 -13 266 0
-17 18 267 0
17 18 -267 0
-17 -18 -267 0
17 -18 267 0
19 20 268 0
-19 20 -268 0
19 -20 -268 0
-19 -20 268 0
21 25 269 0
-21 25 -269 0
21 -25 -269 0
-21 -25 269 0
-28 -31 270 0
28 -31 -270 0
-28 31 -270 0
28 31 270 0
32 34 271 0
-32 34 -271 0
32 -34 -271 0
-32 -34 271 0
35 -36 272 0
-35 -36 -272 0
35 36 -272 0
-35 36 272 0
37 39 273 0
-37 39 -273 0
37 -39 -273 0
-37 -39 273 0
-41 -43 274 0
41 -43 -274 0
-41 43 -274 0
41 43 274 0
-44 -45 275 0
44 -45 -275 0
-44 45 -275 0
44 45 275 0
47 -50 276 0
-47 -50 -276 0
47 50 -276 0
-47 50 276 0
264 -265 277 0
-264 -265 -277 0
264 265 -277 0
-264 265 277 0
266 -267 278 0
-266 -267 -278 0
266 267 -278 0
-266 267 278 0
268 -269 279 0
-268 -269 -279 0
268 269 -279 0
-268 269 279 0
270 -271 280 0
-270 -271 -280 0
270 271 -280 0
-270 271 280 0
272 -273 281 0
-272 -273 -281 0
272 273 -281 0
-272 273 281 0
274 -275 282 0
-274 -275 -282 0
274 275 -282 0
-274 275 282 0
276 -277 283 0
-276 -277 -283 0
276 277 -283 0
-276 277 283 0
278 -279 284 0
-278 -279 -284 0
278 279 -284 0
-278 279 284 0
280 -281 285 0
-280 -281 -285 0
280 281 -285 0
-280 281 285 0
282 -283 286 0
-282 -283 -286 0
282 283 -286 0
-282 283 286 0
284 -285 287 0
-284 -285 -287 0
284 285 -287 0
-284 285 287 0
286 287 0
-286 -287 0
2 3 288 0
-2 3 -288 0
2 -3 -288 0
-2 -3 288 0
4 -5 289 0
-4 -5 -289 0
4 5 -289 0
-4 5 289 0
6 8 290 0
-6 8 -290 0
6 -8 -290 0
-6 -8 290 0
-14 15 291 0
14 15 -291 0
-14 -15 -291 0
14 -15 291 0
-17 -20 292 0
17 -20 -292 0
-17 20 -292 0
17 20 292 0
-21 25 293 0
21 25 -293 0
-21 -25 -293 0
21 -25 293 0
29 30 294 0
-29 30 -294 0
29 -30 -294 0
-29 -30 294 0
-31 35 295 0
31 35 -295 0
-31 -35 -295 0
31 -35 295 0
37 -39 296 0
-37 -39 -296 0
37 39 -296 0
-37 39 296 0
-40 41 297 0
40 41 -297 0
-40 -41 -297 0
40 -41 297 0
42 -43 298 0
-42 -43 -298 0
42 43 -298 0
-42 43 298 0
44 45 299 0
-44 45 -299 0
44 -45 -299 0
-44 -45 299 0
-46 47 300 0
46 47 -300 0
-46 -47 -300 0
46 -47 300 0
288 -289 301 0
-288 -289 -301 0
288 289 -301 0
-288 289 301 0
290 -291 302 0
-290 -291 -302 0
290 291 -302 0
-290 291 302 0
292 -293 303 0
-292 -293 -303 0
292 293 -303 0
-292 293 303 0
294 -295 304 0
-294 -295 -304 0
294 295 -304 0
-294 295 304 0
296 -297 305 0
-296 -297 -305 0
296 297 -305 0
-296 297 305 0
298 -299 306 0
-298 -299 -306 0
298 299 -306 0
-298 299 306 0
300 -301 307 0
-300 -301 -307 0
300 301 -307 0
-300 301 307 0
302 -303 308 0
-302 -303 -308 0
302 303 -308 0
-302 303 308 0
304 -305 309 0
-304 -305 -309 0
304 305 -309 0
-304 305 309 0
306 -307 310 0
-306 -307 -310 0
306 307 -310 0
-306 307 310 0
308 -309 311 0
-308 -309 -311 0
308 309 -311 0
-308 309 311 0
310 311 0
-310 -311 0
-1 -3 312 0
1 -3 -312 0
-1 3 -312 0
1 3 312 0
4 -5 313 0
-4 -5 -313 0
4 5 -313 0
-4 5 313 0
-6 -8 314 0
6 -8 -314 0
-6 8 -314 0
6 8 314 0
-9 10 315 0
9 10 -315 0
-9 -10 -315 0
9 -10 315 0
-14 -15 316 0
14 -15 -316 0
-14 15 -316 0
14 15 316 0
-16 17 317 0
16 17 -317 0
-16 -17 -317 0
16 -17 317 0
18 19 318 0
-18 19 -318 0
18 -19 -318 0
-18 -19 318 0
20 25 319 0
-20 25 -319 0
20 -25 -319 0
-20 -25 319 0
-26 27 320 0
26 27 -320 0
-26 -27 -320 0
26 -27 320 0
-29 35 321 0
29 35 -321 0
-29 -35 -321 0
29 -35 321 0
-36 39 322 0
36 39 -322 0
-36 -39 -322 0
36 -39 322 0
44 -45 323 0
-44 -45 -323 0
44 45 -323 0
-44 45 323 0
-46 -48 324 0
46 -48 -324 0
-46 48 -324 0
46 48 324 0
311 -312 325 0
-311 -312 -325 0
311 312 -325 0
-311 312 325 0
313 -314 326 0
-313 -314 -326 0
313 314 -326 0
-313 314 326 0
315 -316 327 0
-315 -316 -327 0
315 316 -327 0
-315 316 327 0
317 -318 328 0
-317 -318 -328 0
317 318 -328 0
-317 318 328 0
319 -320 329 0
-319 -320 -329 0
319 320 -329 0
-319 320 329 0
321 -322 330 0
-321 -322 -330 0
321 322 -330 0
-321 322 330 0
323 -324 331 0
-323 -324 -331 0
323 324 -331 0
-323 324 331 0
325 -326 332 0
-325 -326 -332 0
325 326 -332 0
-325 326 332 0
327 -328 333 0
-327 -328 -333 0
327 328 -333 0
-327 328 333 0
329 -330 334 0
-329 -330 -334 0
329 330 -334 0
-329 330 334 0
331 -332 335 0
-331 -332 -335 0
331 332 -335 0
-331 332 335 0
333 -334 336 0
-333 -334 -336 0
333 334 -336 0
-333 334 336 0
335 336 0
-335 -336 0
-1 -5 337 0
1 -5 -337 0
-1 5 -337 0
1 5 337 0
10 12 338 0
-10 12 -338 0
10 -12 -338 0
-10 -12 338 0
16 17 339 0
-16 17 -339 0
16 -17 -339 0
-16 -17 339 0
-18 20 340 0
18 20 -340 0
-18 -20 -340 0
18 -20 340 0
-22 -24 341 0
22 -24 -341 0
-22 24 -341 0
22 24 341 0
27 -29 342 0
-27 -29 -342 0
27 29 -342 0
-27 29 342 0
30 -32 343 0
-30 -32 -343 0
30 32 -343 0
-30 32 343 0
37 -38 344 0
-37 -38 -344 0
37 38 -344 0
-37 38 344 0
39 40 345 0
-39 40 -345 0
39 -40 -345 0
-39 -40 345 0
43 46 346 0
-43 46 -346 0
43 -46 -346 0
-43 -46 346 0
337 -338 347 0
-337 -338 -347 0
337 338 -347 0
-337 338 347 0
339 -340 348 0
-339 -340 -348 0
339 340 -348 0
-339 340 348 0
341 -342 349 0
-341 -342 -349 0
341 342 -349 0
-341 342 349 0
343 -344 350 0
-343 -344 -350 0
343 344 -350 0
-343 344 350 0
345 -346 351 0
-345 -346 -351 0
345 346 -351 0
-345 346 351 0
347 -348 352 0
-347 -348 -352 0
347 348 -352 0
-347 348 352 0
349 -350 353 0
-349 -350 -353 0
349 350 -353 0
-349 350 353 0
-351 -352 353 0
351 -352 -353 0
-351 352 -353 0
351 352 353 0
6 7 354 0
-6 7 -354 0
6 -7 -354 0
-6 -7 354 0
-9 10 355 0
9 10 -355 0
-9 -10 -355 0
9 -10 355 0
-11 12 356 0
11 12 -356 0
-11 -12 -356 0
11 -12 356 0
19 22 357 0
-19 22 -357 0
19 -22 -357 0
-19 -22 357 0
-24 25 358 0
24 25 -358 0
-24 -25 -358 0
24 -25 358 0
-29 -32 359 0
29 -32 -359 0
-29 32 -359 0
29 32 359 0
-38 39 360 0
38 39 -360 0
-38 -39 -360 0
38 -39 360 0
41 44 361 0
-41 44 -361 0
41 -44 -361 0
-41 -44 361 0
45 46 362 0
-45 46 -362 0
45 -46 -362 0
-45 -46 362 0
-47 48 363 0
47 48 -363 0
-47 -48 -363 0
47 -48 363 0
354 -355 364 0
-354 -355 -364 0
354 355 -364 0
-354 355 364 0
356 -357 365 0
-356 -357 -365 0
356 357 -365 0
-356 357 365 0
358 -359 366 0
-358 -359 -366 0
358 359 -366 0
-358 359 366 0
360 -361 367 0
-360 -361 -367 0
360 361 -367 0
-360 361 367 0
362 -363 368 0
-362 -363 -368 0
362 363 -368 0
-362 363 368 0
364 -365 369 0
-364 -365 -369 0
364 365 -369 0
-364 365 369 0
366 -367 370 0
-366 -367 -370 0
366 367 -370 0
-366 367 370 0
-368 -369 370 0
368 -369 -370 0
-368 369 -370 0
368 369 370 0
3 -5 371 0
-3 -5 -371 0
3 5 -371 0
-3 5 371 0
-8 9 372 0
8 9 -372 0
-8 -9 -372 0
8 -9 372 0
10 -11 373 0
-10 -11 -373 0
10 11 -373 0
-10 11 373 0
12 13 374 0
-12 13 -374 0
12 -13 -374 0
-12 -13 374 0
16 18 375 0
-16 18 -375 0
16 -18 -375 0
-16 -18 375 0
29 30 376 0
-29 30 -376 0
29 -30 -376 0
-29 -30 376 0
32 33 377 0
-32 33 -377 0
32 -33 -377 0
-32 -33 377 0
-34 -36 378 0
34 -36 -378 0
-34 36 -378 0
34 36 378 0
-38 39 379 0
38 39 -379 0
-38 -39 -379 0
38 -39 379 0
42 -44 380 0
-42 -44 -380 0
42 44 -380 0
-42 44 380 0
-46 47 381 0
46 47 -381 0
-46 -47 -381 0
46 -47 381 0
-48 -49 382 0
48 -49 -382 0
-48 49 -382 0
48 49 382 0
371 -372 383 0
-371 -372 -383 0
371 372 -383 0
-371 372 383 0
373 -374 384 0
-373 -374 -384 0
373 374 -384 0
-373 374 384 0
375 -376 385 0
-375 -376 -385 0
375 376 -385 0
-375 376 385 0
377 -378 386 0
-377 -378 -386 0
377 378 -386 0
-377 378 386 0
379 -380 387 0
-379 -380 -387 0
379 380 -387 0
-379 380 387 0
381 -382 388 0
-381 -382 -388 0
381 382 -388 0
-381 382 388 0
383 -384 389 0
-383 -384 -389 0
383 384 -389 0
-383 384 389 0
385 -386 390 0
-385 -386 -390 0
385 386 -390 0
-385 386 390 0
387 -388 391 0
-387 -388 -391 0
387 388 -391 0
-387 388 391 0
-389 -390 391 0
389 -390 -391 0
-389 390 -391 0
389 390 391 0
-1 4 392 0
1 4 -392 0
-1 -4 -392 0
1 -4 392 0
7 8 393 0
-7 8 -393 0
7 -8 -393 0
-7 -8 393 0
-10 12 394 0
10 12 -394 0
-10 -12 -394 0
10 -12 394 0
13 -15 395 0
-13 -15 -395 0
13 15 -395 0
-13 15 395 0
-21 22 396 0
21 22 -396 0
-21 -22 -396 0
21 -22 396 0
23 -25 397 0
-23 -25 -397 0
23 25 -397 0
-23 25 397 0
26 27 398 0
-26 27 -398 0
26 -27 -398 0
-26 -27 398 0
-28 -30 399 0
28 -30 -399 0
-28 30 -399 0
28 30 399 0
-33 37 400 0
33 37 -400 0
-33 -37 -400 0
33 -37 400 0
-39 42 401 0
39 42 -401 0
-39 -42 -401 0
39 -42 401 0
-47 49 402 0
47 49 -402 0
-47 -49 -402 0
47 -49 402 0
391 -392 403 0
-391 -392 -403 0
391 392 -403 0
-391 392 403 0
393 -394 404 0
-393 -394 -404 0
393 394 -404 0
-393 394 404 0
395 -396 405 0
-395 -396 -405 0
395 396 -405 0
-395 396 405 0
397 -398 406 0
-397 -398 -406 0
397 398 -406 0
-397 398 406 0
399 -400 407 0
-399 -400 -407 0
399 400 -407 0
-399 400 407 0
401 -402 408 0
-401 -402 -408 0
401 402 -408 0
-401 402 408 0
403 -404 409 0
-403 -404 -409 0
403 404 -409 0
-403 404 409 0
405 -406 410 0
-405 -406 -410 0
405 406 -410 0
-405 406 410 0
407 -408 411 0
-407 -408 -411 0
407 408 -411 0
-407 408 411 0
-409 -410 411 0
409 -410 -411 0
-409 410 -411 0
409 410 411 0
2 -3 412 0
-2 -3 -412 0
2 3 -412 0
-2 3 412 0
-4 8 413 0
4 8 -413 0
-4 -8 -413 0
4 -8 413 0
9 10 414 0
-9 10 -414 0
9 -10 -414 0
-9 -10 414 0
-11 -13 415 0
11 -13 -415 0
-11 13 -415 0
11 13 415 0
14 -15 416 0
-14 -15 -416 0
14 15 -416 0
-14 15 416 0
17 18 417 0
-17 18 -417 0
17 -18 -417 0
-17 -18 417 0
19 -20 418 0
-19 -20 -418 0
19 20 -418 0
-19 20 418 0
-24 -25 419 0
24 -25 -419 0
-24 25 -419 0
24 25 419 0
-26 -27 420 0
26 -27 -420 0
-26 27 -420 0
26 27 420 0
29 -33 421 0
-29 -33 -421 0
29 33 -421 0
-29 33 421 0
-37 -38 422 0
37 -38 -422 0
-37 38 -422 0
37 38 422 0
40 44 423 0
-40 44 -423 0
40 -44 -423 0
-40 -44 423 0
-45 46 424 0
45 46 -424 0
-45 -46 -424 0
45 -46 424 0
-47 48 425 0
47 48 -425 0
-47 -48 -425 0
47 -48 425 0
-49 -50 426 0
49 -50 -426 0
-49 50 -426 0
49 50 426 0
412 -413 427 0
-412 -413 -427 0
412 413 -427 0
-412 413 427 0
414 -415 428 0
-414 -415 -428 0
414 415 -428 0
-414 415 428 0
416 -417 429 0
-416 -417 -429 0
416 417 -429 0
-416 417 429 0
418 -419 430 0
-418 -419 -430 0
418 419 -430 0
-418 419 430 0
420 -421 431 0
-420 -421 -431 0
420 421 -431 0
-420 421 431 0
422 -423 432 0
-422 -423 -432 0
422 423 -432 0
-422 423 432 0
424 -425 433 0
-424 -425 -433 0
424 425 -433 0
-424 425 433 0
426 -427 434 0
-426 -427 -434 0
426 427 -434 0
-426 427 434 0
428 -429 435 0
-428 -429 -435 0
428 429 -435 0
-428 429 435 0
430 -431 436 0
-430 -431 -436 0
430 431 -436 0
-430 431 436 0
432 -433 437 0
-432 -433 -437 0
432 433 -437 0
-432 433 437 0
434 -435 438 0
-434 -435 -438 0
434 435 -438 0
-434 435 438 0
436 -437 439 0
-436 -437 -439 0
436 437 -439 0
-436 437 439 0
438 439 0
-438 -439 0
-2 9 440 0
2 9 -440 0
-2 -9 -440 0
2 -9 440 0
-12 13 441 0
12 13 -441 0
-12 -13 -441 0
12 -13 441 0
14 16 442 0
-14 16 -442 0
14 -16 -442 0
-14 -16 442 0
25 26 443 0
-25 26 -443 0
25 -26 -443 0
-25 -26 443 0
27 -37 444 0
-27 -37 -444 0
27 37 -444 0
-27 37 444 0
-39 -42 445 0
39 -42 -445 0
-39 42 -445 0
39 42 445 0
43 -44 446 0
-43 -44 -446 0
43 44 -446 0
-43 44 446 0
45 -48 447 0
-45 -48 -447 0
45 48 -447 0
-45 48 447 0
-49 -50 448 0
49 -50 -448 0
-49 50 -448 0
49 50 448 0
440 -441 449 0
-440 -441 -449 0
440 441 -449 0
-440 441 449 0
442 -443 450 0
-442 -443 -450 0
442 443 -450 0
-442 443 450 0
444 -445 451 0
-444 -445 -451 0
444 445 -451 0
-444 445 451 0
446 -447 452 0
-446 -447 -452 0
446 447 -452 0
-446 447 452 0
448 -449 453 0
-448 -449 -453 0
448 449 -453 0
-448 449 453 0
450 -451 454 0
-450 -451 -454 0
450 451 -454 0
-450 451 454 0
-452 -453 454 0
452 -453 -454 0
-452 453 -454 0
452 453 454 0
-2 -4 455 0
2 -4 -455 0
-2 4 -455 0
2 4 455 0
-7 10 456 0
7 10 -456 0
-7 -10 -456 0
7 -10 456 0
12 14 457 0
-12 14 -457 0
12 -14 -457 0
-12 -14 457 0
15 18 458 0
-15 18 -458 0
15 -18 -458 0
-15 -18 458 0
-19 24 459 0
19 24 -459 0
-19 -24 -459 0
19 -24 459 0
25 -27 460 0
-25 -27 -460 0
25 27 -460 0
-25 27 460 0
-28 -30 461 0
28 -30 -461 0
-28 30 -461 0
28 30 461 0
-32 35 462 0
32 35 -462 0
-32 -35 -462 0
32 -35 462 0
-36 -37 463 0
36 -37 -463 0
-36 37 -463 0
36 37 463 0
-38 -39 464 0
38 -39 -464 0
-38 39 -464 0
38 39 464 0
-42 -44 465 0
42 -44 -465 0
-42 44 -465 0
42 44 465 0
45 46 466 0
-45 46 -466 0
45 -46 -466 0
-45 -46 466 0
47 49 467 0
-47 49 -467 0
47 -49 -467 0
-47 -49 467 0
455 -456 468 0
-455 -456 -468 0
455 456 -468 0
-455 456 468 0
457 -458 469 0
-457 -458 -469 0
457 458 -469 0
-457 458 469 0
459 -460 470 0
-459 -460 -470 0
459 460 -470 0
-459 460 470 0
461 -462 471 0
-461 -462 -471 0
461 462 -471 0
-461 462 471 0
463 -464 472 0
-463 -464 -472 0
463 464 -472 0
-463 464 472 0
465 -466 473 0
-465 -466 -473 0
465 466 -473 0
-465 466 473 0
467 -468 474 0
-467 -468 -474 0
467 468 -474 0
-467 468 474 0
469 -470 475 0
-469 -470 -475 0
469 470 -475 0
-469 470 475 0
471 -472 476 0
-471 -472 -476 0
471 472 -476 0
-471 472 476 0
473 -474 477 0
-473 -474 -477 0
473 474 -477 0
-473 474 477 0
475 -476 478 0
-475 -476 -478 0
475 476 -478 0
-475 476 478 0
477 478 0
-477 -478 0
-12 479 0
-24 479 0
-12 -24 480 0
-23 479 0
-12 -23 480 0
-24 -23 480 0
-12 -24 -23 481 0
-22 482 0
-21 482 0
-22 -21 483 0
-20 482 0
-22 -20 483 0
-21 -20 483 0
-22 -21 -20 484 0
-479 485 0
-480 486 0
-481 487 0
-482 485 0
-483 486 0
-484 487 0
-479 -482 486 0
-479 -483 487 0
-479 -484 488 0
-480 -482 487 0
-480 -483 488 0
-480 -484 489 0
-481 -482 488 0
-481 -483 489 0
-481 -484 490 0
-19 491 0
-18 491 0
-19 -18 492 0
-17 491 0
-19 -17 492 0
-18 -17 492 0
-19 -18 -17 493 0
-16 494 0
-15 494 0
-16 -15 495 0
-14 494 0
-16 -14 495 0
-15 -14 495 0
-16 -15 -14 496 0
-491 497 0
-492 498 0
-493 499 0
-494 497 0
-495 498 0
-496 499 0
-491 -494 498 0
-491 -495 499 0
-491 -496 500 0
-492 -494 499 0
-492 -495 500 0
-492 -496 501 0
-493 -494 500 0
-493 -495 501 0
-493 -496 502 0
-485 503 0
-487 504 0
-489 505 0
-497 503 0
-499 504 0
-501 505 0
-485 -497 504 0
-485 -499 505 0
-485 -501 506 0
-487 -497 505 0
-487 -499 506 0
-487 -501 507 0
-489 -497 506 0
-489 -499 507 0
-489 -501 508 0
-486 509 0
-488 510 0
-490 511 0
-498 509 0
-500 510 0
-502 511 0
-486 -498 510 0
-486 -500 511 0
-486 -502 512 0
-488 -498 511 0
-488 -500 512 0
-488 -502 513 0
-490 -498 512 0
-490 -500 513 0
-490 -502 514 0
-504 515 0
-509 515 0
-504 -509 516 0
-505 517 0
-510 517 0
-505 -510 518 0
-506 519 0
-511 519 0
-506 -511 520 0
-507 521 0
-512 521 0
-507 -512 522 0
-508 523 0
-513 523 0
-508 -513 524 0
-13 525 0
-25 525 0
-13 -25 526 0
-11 525 0
-13 -11 526 0
-25 -11 526 0
-13 -25 -11 527 0
-10 528 0
-9 528 0
-10 -9 529 0
-8 528 0
-10 -8 529 0
-9 -8 529 0
-10 -9 -8 530 0
-525 531 0
-526 532 0
-527 533 0
-528 531 0
-529 532 0
-530 533 0
-525 -528 532 0
-525 -529 533 0
-525 -530 534 0
-526 -528 533 0
-526 -529 534 0
-526 -530 535 0
-527 -528 534 0
-527 -529 535 0
-527 -530 536 0
-7 537 0
-6 537 0
-7 -6 538 0
-5 537 0
-7 -5 538 0
-6 -5 538 0
-7 -6 -5 539 0
-4 540 0
-3 540 0
-4 -3 541 0
-2 540 0
-4 -2 541 0
-3 -2 541 0
-4 -3 -2 542 0
-537 543 0
-538 544 0
-539 545 0
-540 543 0
-541 544 0
-542 545 0
-537 -540 544 0
-537 -541 545 0
-537 -542 546 0
-538 -540 545 0
-538 -541 546 0
-538 -542 547 0
-539 -540 546 0
-539 -541 547 0
-539 -542 548 0
-531 549 0
-533 550 0
-535 551 0
-543 549 0
-545 550 0
-547 551 0
-531 -543 550 0
-531 -545 551 0
-531 -547 552 0
-533 -543 551 0
-533 -545 552 0
-533 -547 553 0
-535 -543 552 0
-535 -545 553 0
-535 -547 554 0
-532 555 0
-534 556 0
-536 557 0
-544 555 0
-546 556 0
-548 557 0
-532 -544 556 0
-532 -546 557 0
-532 -548 558 0
-534 -544 557 0
-534 -546 558 0
-534 -548 559 0
-536 -544 558 0
-536 -546 559 0
-536 -548 560 0
-550 561 0
-555 561 0
-550 -555 562 0
-551 563 0
-556 563 0
-551 -556 564 0
-552 565 0
-557 565 0
-552 -557 566 0
-553 567 0
-558 567 0
-553 -558 568 0
-554 569 0
-559 569 0
-554 -559 570 0
-1 571 0
-37 571 0
-1 -37 572 0
-49 571 0
-1 -49 572 0
-37 -49 572 0
-1 -37 -49 573 0
-48 574 0
-47 574 0
-48 -47 575 0
-46 574 0
-48 -46 575 0
-47 -46 575 0
-48 -47 -46 576 0
-571 577 0
-572 578 0
-573 579 0
-574 577 0
-575 578 0
-576 579 0
-571 -574 578 0
-571 -575 579 0
-571 -576 580 0
-572 -574 579 0
-572 -575 580 0
-572 -576 581 0
-573 -574 580 0
-573 -575 581 0
-573 -576 582 0
-45 583 0
-44 583 0
-45 -44 584 0
-43 583 0
-45 -43 584 0
-44 -43 584 0
-45 -44 -43 585 0
-42 586 0
-41 586 0
-42 -41 587 0
-40 586 0
-42 -40 587 0
-41 -40 587 0
-42 -41 -40 588 0
-583 589 0
-584 590 0
-585 591 0
-586 589 0
-587 590 0
-588 591 0
-583 -586 590 0
-583 -587 591 0
-583 -588 592 0
-584 -586 591 0
-584 -587 592 0
-584 -588 593 0
-585 -586 592 0
-585 -587 593 0
-585 -588 594 0
-577 595 0
-579 596 0
-581 597 0
-589 595 0
-591 596 0
-593 597 0
-577 -589 596 0
-577 -591 597 0
-577 -593 598 0
-579 -589 597 0
-579 -591 598 0
-579 -593 599 0
-581 -589 598 0
-581 -591 599 0
-581 -593 600 0
-578 601 0
-580 602 0
-582 603 0
-590 601 0
-592 602 0
-594 603 0
-578 -590 602 0
-578 -592 603 0
-578 -594 604 0
-580 -590 603 0
-580 -592 604 0
-580 -594 605 0
-582 -590 604 0
-582 -592 605 0
-582 -594 606 0
-596 607 0
-601 607 0
-596 -601 608 0
-597 609 0
-602 609 0
-597 -602 610 0
-598 611 0
-603 611 0
-598 -603 612 0
-599 613 0
-604 613 0
-599 -604 614 0
-600 615 0
-605 615 0
-600 -605 616 0
-39 617 0
-38 617 0
-39 -38 618 0
-50 617 0
-39 -50 618 0
-38 -50 618 0
-39 -38 -50 619 0
-36 620 0
-35 620 0
-36 -35 621 0
-34 620 0
-36 -34 621 0
-35 -34 621 0
-36 -35 -34 622 0
-617 623 0
-618 624 0
-619 625 0
-620 623 0
-621 624 0
-622 625 0
-617 -620 624 0
-617 -621 625 0
-617 -622 626 0
-618 -620 625 0
-618 -621 626 0
-618 -622 627 0
-619 -620 626 0
-619 -621 627 0
-619 -622 628 0
-33 629 0
-32 629 0
-33 -32 630 0
-31 629 0
-33 -31 630 0
-32 -31 630 0
-33 -32 -31 631 0
-30 632 0
-29 632 0
-30 -29 633 0
-28 634 0
-27 634 0
-28 -27 635 0
-26 634 0
-28 -26 635 0
-27 -26 635 0
-28 -27 -26 636 0
-632 637 0
-633 638 0
-634 637 0
-635 638 0
-636 639 0
-632 -634 638 0
-632 -635 639 0
-632 -636 640 0
-633 -634 639 0
-633 -635 640 0
-633 -636 641 0
-629 642 0
-630 643 0
-631 644 0
-637 642 0
-638 643 0
-639 644 0
-640 645 0
-641 646 0
-629 -637 643 0
-629 -638 644 0
-629 -639 645 0
-629 -640 646 0
-629 -641 647 0
-630 -637 644 0
-630 -638 645 0
-630 -639 646 0
-630 -640 647 0
-630 -641 648 0
-631 -637 645 0
-631 -638 646 0
-631 -639 647 0
-631 -640 648 0
-631 -641 649 0
-623 650 0
-625 651 0
-627 652 0
-642 650 0
-644 651 0
-646 652 0
-648 653 0
-623 -642 651 0
-623 -644 652 0
-623 -646 653 0
-623 -648 654 0
-625 -642 652 0
-625 -644 653 0
-625 -646 654 0
-625 -648 655 0
-627 -642 653 0
-627 -644 654 0
-627 -646 655 0
-627 -648 656 0
-624 657 0
-626 658 0
-628 659 0
-643 657 0
-645 658 0
-647 659 0
-649 660 0
-624 -643 658 0
-624 -645 659 0
-624 -647 660 0
-624 -649 661 0
-626 -643 659 0
-626 -645 660 0
-626 -647 661 0
-626 -649 662 0
-628 -643 660 0
-628 -645 661 0
-628 -647 662 0
-628 -649 663 0
-651 664 0
-657 664 0
-651 -657 665 0
-652 666 0
-658 666 0
-652 -658 667 0
-653 668 0
-659 668 0
-653 -659 669 0
-654 670 0
-660 670 0
-654 -660 671 0
-655 672 0
-661 672 0
-655 -661 673 0
-656 674 0
-662 674 0
-656 -662 675 0
-595 676 0
-610 677 0
-614 678 0
-650 676 0
-667 677 0
-671 678 0
-675 679 0
-595 -650 677 0
-595 -667 678 0
-595 -671 679 0
-595 -675 680 0
-610 -650 678 0
-610 -667 679 0
-610 -671 680 0
-614 -650 679 0
-614 -667 680 0
-608 681 0
-612 682 0
-616 683 0
-665 681 0
-669 682 0
-673 683 0
-608 -665 682 0
-608 -669 683 0
-608 -673 684 0
-612 -665 683 0
-612 -669 684 0
-616 -665 684 0
-677 685 0
-681 685 0
-677 -681 686 0
-678 687 0
-682 687 0
-678 -682 688 0
-679 689 0
-683 689 0
-679 -683 690 0
-680 691 0
-684 691 0
-680 -684 692 0
-607 693 0
-611 694 0
-615 695 0
-664 693 0
-668 694 0
-672 695 0
-663 696 0
-607 -664 694 0
-607 -668 695 0
-607 -672 696 0
-607 -663 697 0
-611 -664 695 0
-611 -668 696 0
-611 -672 697 0
-615 -664 696 0
-615 -668 697 0
-609 698 0
-613 699 0
-606 700 0
-666 698 0
-670 699 0
-674 700 0
-609 -666 699 0
-609 -670 700 0
-609 -674 701 0
-613 -666 700 0
-613 -670 701 0
-606 -666 701 0
-694 702 0
-698 702 0
-694 -698 703 0
-695 704 0
-699 704 0
-695 -699 705 0
-696 706 0
-700 706 0
-696 -700 707 0
-697 708 0
-701 708 0
-685 709 0
-693 709 0
-685 -693 710 0
-686 711 0
-702 711 0
-686 -702 712 0
-687 713 0
-703 713 0
-687 -703 714 0
-688 715 0
-704 715 0
-688 -704 716 0
-689 717 0
-705 717 0
-689 -705 718 0
-690 719 0
-706 719 0
-690 -706 720 0
-691 721 0
-707 721 0
-691 -707 722 0
-692 723 0
-708 723 0
-549 724 0
-564 725 0
-568 726 0
-676 724 0
-712 725 0
-716 726 0
-720 727 0
-549 -676 725 0
-549 -712 726 0
-549 -716 727 0
-549 -720 728 0
-564 -676 726 0
-564 -712 727 0
-564 -716 728 0
-568 -676 727 0
-568 -712 728 0
-562 729 0
-566 730 0
-570 731 0
-710 729 0
-714 730 0
-718 731 0
-722 732 0
-562 -710 730 0
-562 -714 731 0
-562 -718 732 0
-566 -710 731 0
-566 -714 732 0
-570 -710 732 0
-725 733 0
-729 733 0
-725 -729 734 0
-726 735 0
-730 735 0
-726 -730 736 0
-727 737 0
-731 737 0
-727 -731 738 0
-728 739 0
-732 739 0
-728 -732 740 0
-561 741 0
-565 742 0
-569 743 0
-709 741 0
-713 742 0
-717 743 0
-721 744 0
-561 -709 742 0
-561 -713 743 0
-561 -717 744 0
-561 -721 745 0
-565 -709 743 0
-565 -713 744 0
-565 -717 745 0
-569 -709 744 0
-569 -713 745 0
-563 746 0
-567 747 0
-560 748 0
-711 746 0
-715 747 0
-719 748 0
-723 749 0
-563 -711 747 0
-563 -715 748 0
-563 -719 749 0
-567 -711 748 0
-567 -715 749 0
-560 -711 749 0
-742 750 0
-746 750 0
-742 -746 751 0
-743 752 0
-747 752 0
-743 -747 753 0
-744 754 0
-748 754 0
-744 -748 755 0
-745 756 0
-749 756 0
-733 757 0
-741 757 0
-733 -741 758 0
-734 759 0
-750 759 0
-734 -750 760 0
-735 761 0
-751 761 0
-735 -751 762 0
-736 763 0
-752 763 0
-736 -752 764 0
-737 765 0
-753 765 0
-737 -753 766 0
-738 767 0
-754 767 0
-738 -754 768 0
-739 769 0
-755 769 0
-739 -755 770 0
-740 771 0
-756 771 0
-503 772 0
-518 773 0
-522 774 0
-724 772 0
-760 773 0
-764 774 0
-768 775 0
-503 -724 773 0
-503 -760 774 0
-503 -764 775 0
-503 -768 776 0
-518 -724 774 0
-518 -760 775 0
-518 -764 776 0
-522 -724 775 0
-522 -760 776 0
-516 777 0
-520 778 0
-524 779 0
-758 777 0
-762 778 0
-766 779 0
-770 780 0
-516 -758 778 0
-516 -762 779 0
-516 -766 780 0
-520 -758 779 0
-520 -762 780 0
-524 -758 780 0
-773 781 0
-777 781 0
-773 -777 782 0
-774 783 0
-778 783 0
-774 -778 784 0
-775 785 0
-779 785 0
-775 -779 786 0
-776 787 0
-780 787 0
-776 -780 788 0
-515 789 0
-519 790 0
-523 791 0
-757 789 0
-761 790 0
-765 791 0
-769 792 0
-515 -757 790 0
-515 -761 791 0
-515 -765 792 0
-515 -769 793 0
-519 -757 791 0
-519 -761 792 0
-519 -765 793 0
-523 -757 792 0
-523 -761 793 0
-517 794 0
-521 795 0
-514 796 0
-759 794 0
-763 795 0
-767 796 0
-771 797 0
-517 -759 795 0
-517 -763 796 0
-517 -767 797 0
-521 -759 796 0
-521 -763 797 0
-514 -759 797 0
-790 798 0
-794 798 0
-790 -794 799 0
-791 800 0
-795 800 0
-791 -795 801 0
-792 802 0
-796 802 0
-792 -796 803 0
-793 804 0
-797 804 0
-781 805 0
-789 805 0
-781 -789 806 0
-782 807 0
-798 807 0
-782 -798 808 0
-783 809 0
-799 809 0
-783 -799 810 0
-784 811 0
-800 811 0
-784 -800 812 0
-785 813 0
-801 813 0
-785 -801 814 0
-786 815 0
-802 815 0
-786 -802 816 0
-787 817 0
-803 817 0
-787 -803 818 0
-788 819 0
-804 819 0
-819 0
